hypervisor/sirius/embedding/pt/lasige/secdepvne/topology/result/virtualNetwork2_embedding.out
GLPSOL: GLPK LP/MIP Solver, v4.52
Parameter(s) specified in the command line:
 --model /home/floodlight/src/main/java/net/floodlightcontroller/sirius/embedding/pt/lasige/secdepvne/topology/SecDep_MIP.mod
 --data /home/floodlight/src/main/java/net/floodlightcontroller/sirius/embedding/pt/lasige/secdepvne/topology/result/virtualNetwork2_embedding.dat
Reading model section from /home/floodlight/src/main/java/net/floodlightcontroller/sirius/embedding/pt/lasige/secdepvne/topology/SecDep_MIP.mod...
210 lines were read
Reading data section from /home/floodlight/src/main/java/net/floodlightcontroller/sirius/embedding/pt/lasige/secdepvne/topology/result/virtualNetwork2_embedding.dat...
109 lines were read
Generating cost...
Generating fwConst0...
Generating fwConst1...
Generating fwConst2...
Generating fwConst3...
Generating fwConst4...
Generating fbConst0...
Generating fbConst1...
Generating fbConst2...
Generating fbConst3...
Generating fbConst4...
Generating capConst0...
Generating capConst1...
Generating nodeCapConst0...
Generating nodeCapConst1...
Generating nodeMapConst0...
Generating nodeMapConst1...
Generating nodeMapConst2...
Generating nodeMapConst3...
Generating nodeLocConst0...
Generating nodeLocConst1...
Generating nodeLocConst2...
Generating nodeLocConst3...
Generating nodeLocConst4...
Generating nodeLocConst5...
Generating cloudConst0...
Generating cloudConst1...
Generating flowConst...
Generating relConst0...
Generating relConst1...
Generating relConst2...
Generating relConst3...
Generating relConst4...
Generating relConst5...
Generating nodeSecConst0...
Generating nodeSecConst1...
Generating linkSecConst0...
Generating linkSecConst1...
Generating binConst0...
Generating binConst1...
Generating aux0...
Generating aux1...
Generating aux2...
Model has been successfully generated
GLPK Integer Optimizer, v4.52
470 rows, 304 columns, 1038 non-zeros
136 integer variables, all of which are binary
Preprocessing...
12 hidden packing inequaliti(es) were detected
10 constraint coefficient(s) were reduced
194 rows, 159 columns, 509 non-zeros
102 integer variables, all of which are binary
Scaling...
 A: min|aij| =  1.000e+00  max|aij| =  1.000e+03  ratio =  1.000e+03
GM: min|aij| =  8.169e-01  max|aij| =  1.224e+00  ratio =  1.499e+00
EQ: min|aij| =  6.946e-01  max|aij| =  1.000e+00  ratio =  1.440e+00
2N: min|aij| =  4.883e-01  max|aij| =  1.250e+00  ratio =  2.560e+00
Constructing initial basis...
Size of triangular part is 160
Solving LP relaxation...
GLPK Simplex Optimizer, v4.52
194 rows, 159 columns, 509 non-zeros
      0: obj =   0.000000000e+00  infeas =  7.575e+01 (34)
*    18: obj =   0.000000000e+00  infeas =  2.818e-15 (34)
OPTIMAL LP SOLUTION FOUND
Integer optimization begins...
+    18: mip =     not found yet >=              -inf        (1; 0)
+    38: >>>>>   2.000000000e+00 >=   0.000000000e+00 100.0% (5; 0)
+    60: mip =   2.000000000e+00 >=     tree is empty   0.0% (0; 13)
INTEGER OPTIMAL SOLUTION FOUND
Time used:   0.0 secs
Memory used: 0.7 Mb (759922 bytes)
Function cost: 2.000000
Sum of all phiw to 1 and 3: 2
Sum of all phib to 1 and 3: 0
Variable fw[1,3,A,A]: 0.000000
Variable fw[1,3,A,B]: 0.000000
Variable fw[1,3,A,C]: 0.000000
Variable fw[1,3,A,D]: 0.000000
Variable fw[1,3,A,E]: 0.000000
Variable fw[1,3,A,1]: 0.000000
Variable fw[1,3,A,3]: 0.000000
Variable fw[1,3,B,A]: 0.000000
Variable fw[1,3,B,B]: 0.000000
Variable fw[1,3,B,C]: 1000.000000
Variable fw[1,3,B,D]: 0.000000
Variable fw[1,3,B,E]: 0.000000
Variable fw[1,3,B,1]: 0.000000
Variable fw[1,3,B,3]: 0.000000
Variable fw[1,3,C,A]: 0.000000
Variable fw[1,3,C,B]: 0.000000
Variable fw[1,3,C,C]: 0.000000
Variable fw[1,3,C,D]: 0.000000
Variable fw[1,3,C,E]: 0.000000
Variable fw[1,3,C,1]: 0.000000
Variable fw[1,3,C,3]: 1000.000000
Variable fw[1,3,D,A]: 0.000000
Variable fw[1,3,D,B]: 0.000000
Variable fw[1,3,D,C]: 0.000000
Variable fw[1,3,D,D]: 0.000000
Variable fw[1,3,D,E]: 0.000000
Variable fw[1,3,D,1]: 0.000000
Variable fw[1,3,D,3]: 0.000000
Variable fw[1,3,E,A]: 0.000000
Variable fw[1,3,E,B]: 0.000000
Variable fw[1,3,E,C]: 0.000000
Variable fw[1,3,E,D]: 0.000000
Variable fw[1,3,E,E]: 0.000000
Variable fw[1,3,E,1]: 0.000000
Variable fw[1,3,E,3]: 0.000000
Variable fw[1,3,1,A]: 0.000000
Variable fw[1,3,1,B]: 1000.000000
Variable fw[1,3,1,C]: 0.000000
Variable fw[1,3,1,D]: 0.000000
Variable fw[1,3,1,E]: 0.000000
Variable fw[1,3,1,1]: 0.000000
Variable fw[1,3,1,3]: 0.000000
Variable fw[1,3,3,A]: 0.000000
Variable fw[1,3,3,B]: 0.000000
Variable fw[1,3,3,C]: 0.000000
Variable fw[1,3,3,D]: 0.000000
Variable fw[1,3,3,E]: 0.000000
Variable fw[1,3,3,1]: 0.000000
Variable fw[1,3,3,3]: 0.000000
Variable fb[1,3,A,A]: 0.000000
Variable fb[1,3,A,B]: 0.000000
Variable fb[1,3,A,C]: 0.000000
Variable fb[1,3,A,D]: 0.000000
Variable fb[1,3,A,E]: 0.000000
Variable fb[1,3,A,1]: 0.000000
Variable fb[1,3,A,3]: 0.000000
Variable fb[1,3,B,A]: 0.000000
Variable fb[1,3,B,B]: 0.000000
Variable fb[1,3,B,C]: 0.000000
Variable fb[1,3,B,D]: 0.000000
Variable fb[1,3,B,E]: 0.000000
Variable fb[1,3,B,1]: 0.000000
Variable fb[1,3,B,3]: 0.000000
Variable fb[1,3,C,A]: 0.000000
Variable fb[1,3,C,B]: 0.000000
Variable fb[1,3,C,C]: 0.000000
Variable fb[1,3,C,D]: 0.000000
Variable fb[1,3,C,E]: 0.000000
Variable fb[1,3,C,1]: 0.000000
Variable fb[1,3,C,3]: 0.000000
Variable fb[1,3,D,A]: 0.000000
Variable fb[1,3,D,B]: 0.000000
Variable fb[1,3,D,C]: 0.000000
Variable fb[1,3,D,D]: 0.000000
Variable fb[1,3,D,E]: 0.000000
Variable fb[1,3,D,1]: 0.000000
Variable fb[1,3,D,3]: 0.000000
Variable fb[1,3,E,A]: 0.000000
Variable fb[1,3,E,B]: 0.000000
Variable fb[1,3,E,C]: 0.000000
Variable fb[1,3,E,D]: 0.000000
Variable fb[1,3,E,E]: 0.000000
Variable fb[1,3,E,1]: 0.000000
Variable fb[1,3,E,3]: 0.000000
Variable fb[1,3,1,A]: 0.000000
Variable fb[1,3,1,B]: 0.000000
Variable fb[1,3,1,C]: 0.000000
Variable fb[1,3,1,D]: 0.000000
Variable fb[1,3,1,E]: 0.000000
Variable fb[1,3,1,1]: 0.000000
Variable fb[1,3,1,3]: 0.000000
Variable fb[1,3,3,A]: 0.000000
Variable fb[1,3,3,B]: 0.000000
Variable fb[1,3,3,C]: 0.000000
Variable fb[1,3,3,D]: 0.000000
Variable fb[1,3,3,E]: 0.000000
Variable fb[1,3,3,1]: 0.000000
Variable fb[1,3,3,3]: 0.000000
Variable phiw[1,3,A,A]: 0
Variable phiw[1,3,A,B]: 0
Variable phiw[1,3,A,C]: 0
Variable phiw[1,3,A,D]: 0
Variable phiw[1,3,A,E]: 0
Variable phiw[1,3,A,1]: 0
Variable phiw[1,3,A,3]: 0
Variable phiw[1,3,B,A]: 0
Variable phiw[1,3,B,B]: 0
Variable phiw[1,3,B,C]: 1
Variable phiw[1,3,B,D]: 0
Variable phiw[1,3,B,E]: 0
Variable phiw[1,3,B,1]: 1
Variable phiw[1,3,B,3]: 0
Variable phiw[1,3,C,A]: 0
Variable phiw[1,3,C,B]: 1
Variable phiw[1,3,C,C]: 0
Variable phiw[1,3,C,D]: 0
Variable phiw[1,3,C,E]: 0
Variable phiw[1,3,C,1]: 0
Variable phiw[1,3,C,3]: 1
Variable phiw[1,3,D,A]: 0
Variable phiw[1,3,D,B]: 0
Variable phiw[1,3,D,C]: 0
Variable phiw[1,3,D,D]: 0
Variable phiw[1,3,D,E]: 0
Variable phiw[1,3,D,1]: 0
Variable phiw[1,3,D,3]: 0
Variable phiw[1,3,E,A]: 0
Variable phiw[1,3,E,B]: 0
Variable phiw[1,3,E,C]: 0
Variable phiw[1,3,E,D]: 0
Variable phiw[1,3,E,E]: 0
Variable phiw[1,3,E,1]: 0
Variable phiw[1,3,E,3]: 0
Variable phiw[1,3,1,A]: 0
Variable phiw[1,3,1,B]: 1
Variable phiw[1,3,1,C]: 0
Variable phiw[1,3,1,D]: 0
Variable phiw[1,3,1,E]: 0
Variable phiw[1,3,1,1]: 0
Variable phiw[1,3,1,3]: 0
Variable phiw[1,3,3,A]: 0
Variable phiw[1,3,3,B]: 0
Variable phiw[1,3,3,C]: 1
Variable phiw[1,3,3,D]: 0
Variable phiw[1,3,3,E]: 0
Variable phiw[1,3,3,1]: 0
Variable phiw[1,3,3,3]: 0
Variable phib[1,3,A,A]: 0
Variable phib[1,3,A,B]: 0
Variable phib[1,3,A,C]: 0
Variable phib[1,3,A,D]: 0
Variable phib[1,3,A,E]: 0
Variable phib[1,3,A,1]: 0
Variable phib[1,3,A,3]: 0
Variable phib[1,3,B,A]: 0
Variable phib[1,3,B,B]: 0
Variable phib[1,3,B,C]: 0
Variable phib[1,3,B,D]: 0
Variable phib[1,3,B,E]: 0
Variable phib[1,3,B,1]: 0
Variable phib[1,3,B,3]: 0
Variable phib[1,3,C,A]: 0
Variable phib[1,3,C,B]: 0
Variable phib[1,3,C,C]: 0
Variable phib[1,3,C,D]: 0
Variable phib[1,3,C,E]: 0
Variable phib[1,3,C,1]: 0
Variable phib[1,3,C,3]: 0
Variable phib[1,3,D,A]: 0
Variable phib[1,3,D,B]: 0
Variable phib[1,3,D,C]: 0
Variable phib[1,3,D,D]: 0
Variable phib[1,3,D,E]: 0
Variable phib[1,3,D,1]: 0
Variable phib[1,3,D,3]: 0
Variable phib[1,3,E,A]: 0
Variable phib[1,3,E,B]: 0
Variable phib[1,3,E,C]: 0
Variable phib[1,3,E,D]: 0
Variable phib[1,3,E,E]: 0
Variable phib[1,3,E,1]: 0
Variable phib[1,3,E,3]: 0
Variable phib[1,3,1,A]: 0
Variable phib[1,3,1,B]: 0
Variable phib[1,3,1,C]: 0
Variable phib[1,3,1,D]: 0
Variable phib[1,3,1,E]: 0
Variable phib[1,3,1,1]: 0
Variable phib[1,3,1,3]: 0
Variable phib[1,3,3,A]: 0
Variable phib[1,3,3,B]: 0
Variable phib[1,3,3,C]: 0
Variable phib[1,3,3,D]: 0
Variable phib[1,3,3,E]: 0
Variable phib[1,3,3,1]: 0
Variable phib[1,3,3,3]: 0
Variable thetaw[1,A]: 0
Variable thetaw[1,B]: 1
Variable thetaw[1,C]: 0
Variable thetaw[1,D]: 0
Variable thetaw[1,E]: 0
Variable thetaw[3,A]: 0
Variable thetaw[3,B]: 0
Variable thetaw[3,C]: 1
Variable thetaw[3,D]: 0
Variable thetaw[3,E]: 0
Variable thetab[1,A]: 0
Variable thetab[1,B]: 0
Variable thetab[1,C]: 0
Variable thetab[1,D]: 0
Variable thetab[1,E]: 0
Variable thetab[3,A]: 0
Variable thetab[3,B]: 0
Variable thetab[3,C]: 0
Variable thetab[3,D]: 0
Variable thetab[3,E]: 0
Variable cw[1,1]: 0
Variable cw[3,1]: 0
Variable cw[1,2]: 1
Variable cw[3,2]: 1
Variable cb[1,1]: 0
Variable cb[3,1]: 0
Variable cb[1,2]: 0
Variable cb[3,2]: 0
Variable r[A,A]: 0.000000
Variable r[A,B]: 0.000000
Variable r[A,C]: 0.000000
Variable r[A,D]: 0.000000
Variable r[A,E]: 0.000000
Variable r[B,A]: 0.000000
Variable r[B,B]: 0.000000
Variable r[B,C]: 0.000000
Variable r[B,D]: 0.000000
Variable r[B,E]: 0.000000
Variable r[C,A]: 0.000000
Variable r[C,B]: 0.000000
Variable r[C,C]: 0.000000
Variable r[C,D]: 0.000000
Variable r[C,E]: 0.000000
Variable r[D,A]: 0.000000
Variable r[D,B]: 0.000000
Variable r[D,C]: 0.000000
Variable r[D,D]: 0.000000
Variable r[D,E]: 0.000000
Variable r[E,A]: 0.000000
Variable r[E,B]: 0.000000
Variable r[E,C]: 0.000000
Variable r[E,D]: 0.000000
Variable r[E,E]: 0.000000
Variable cw[1,1] + cb[1,1]: 0
Variable cw[1,2] + cb[1,2]: 1
Variable cw[3,1] + cb[3,1]: 0
Variable cw[3,2] + cb[3,2]: 1
Variable gama[A]: 0.000000
Variable gama[B]: 0.000000
Variable gama[C]: 0.000000
Variable gama[D]: 0.000000
Variable gama[E]: 0.000000
Model has been successfully processed
